%Mem=16GB
%Nprocshared=10
%oldchk=1_#_m062x_6-311G_d_p_geom_allcheck_guess_read.chk
%chk=1_#_mp2_6-31G_d_geom_allcheck_guess_read.chk
# mp2/6-31G(d) geom=allcheck guess=read

Smiles:Oc1ccccc1

0 1


