%Mem=16GB
%Nprocshared=10
%chk=1_#_opt_pm6_MMFF.chk
# opt pm6

Smiles:Oc1ccccc1

0 1
 O  2.400554 -0.646560 0.191861
 C  1.083748 -0.306029 0.092811
 C  0.141277 -1.228662 0.532965
 C  -1.216593 -0.921301 0.450011
 C  -1.622007 0.307245 -0.072843
 C  -0.669483 1.228131 -0.512614
 C  0.690134 0.922453 -0.430463
 H  2.934832 0.088341 -0.150492
 H  0.463392 -2.183134 0.938903
 H  -1.956826 -1.639191 0.792753
 H  -2.680342 0.546710 -0.137456
 H  -0.988217 2.184317 -0.919431
 H  1.419534 1.647680 -0.776006


