%Mem=16GB
%Nprocshared=10
%chk=2_#_opt_pm6_MMFF.chk
# opt pm6

Smiles:Nc1ccccc1O

0 1
 N  -2.214540 -0.113902 0.063557
 C  -0.807003 -0.150408 -0.010976
 C  -0.107834 -1.345713 0.157752
 C  1.291119 -1.354613 0.129912
 C  2.000665 -0.162082 -0.026903
 C  1.314938 1.046670 -0.124915
 C  -0.073641 1.041623 -0.083630
 O  -0.730183 2.242406 -0.069921
 H  -2.628689 -1.031842 -0.079962
 H  -2.598455 0.548422 -0.608682
 H  -0.639542 -2.282844 0.294409
 H  1.828299 -2.293691 0.237097
 H  3.087232 -0.172694 -0.046150
 H  1.855406 1.984743 -0.202502
 H  -1.577772 2.043926 0.370912


