%Mem=16GB
%Nprocshared=10
%chk=1_#_opt_pm6_MMFF.chk
# opt pm6

Smiles:[2H]C

0 1
 H  -0.747683 -0.110470 -0.788459
 C  -0.000000 0.000000 -0.000000
 H  -0.347359 -0.504331 0.904373
 H  0.942038 -0.445922 -0.326524
 H  0.153004 1.060723 0.210610


