%Mem=16GB
%Nprocshared=10
%chk=2_#_opt_pm6_MMFF.chk
# opt pm6

Smiles:[2H]OC

0 1
 H  1.553884 -0.181220 -0.119000
 O  0.855683 -0.442937 0.505086
 C  -0.366173 0.060961 -0.002317
 H  -0.557934 -0.370240 -0.987920
 H  -0.310627 1.149968 -0.073743
 H  -1.174834 -0.216531 0.677894


